************************************************************************
file with basedata            : md275_.bas
initial value random generator: 119980044
************************************************************************
projects                      :  1
jobs (incl. supersource/sink ):  20
horizon                       :  140
RESOURCES
  - renewable                 :  2   R
  - nonrenewable              :  2   N
  - doubly constrained        :  0   D
************************************************************************
PROJECT INFORMATION:
pronr.  #jobs rel.date duedate tardcost  MPM-Time
    1     18      0       19       14       19
************************************************************************
PRECEDENCE RELATIONS:
jobnr.    #modes  #successors   successors
   1        1          3           2   3   4
   2        3          3           5   7   9
   3        3          2           6   8
   4        3          1           7
   5        3          3          13  14  16
   6        3          1          12
   7        3          3          10  11  18
   8        3          3          10  17  18
   9        3          3          10  12  14
  10        3          1          19
  11        3          3          13  14  19
  12        3          2          15  16
  13        3          1          17
  14        3          1          15
  15        3          1          17
  16        3          2          18  19
  17        3          1          20
  18        3          1          20
  19        3          1          20
  20        1          0        
************************************************************************
REQUESTS/DURATIONS:
jobnr. mode duration  R 1  R 2  N 1  N 2
------------------------------------------------------------------------
  1      1     0       0    0    0    0
  2      1     6       3    0    0    8
         2     7       0    4    0    7
         3     8       3    0    0    5
  3      1     2       7    0    6    0
         2     4       3    0    0    8
         3     8       0    7    4    0
  4      1     6       9    0    0    3
         2     7       0    3    0    2
         3     8       3    0    0    1
  5      1     3       0    2    3    0
         2     6       0    2    1    0
         3     6       4    0    1    0
  6      1     6       0    9   10    0
         2     8       0    8    0    3
         3    10       0    7    0    2
  7      1     2       6    0    6    0
         2     4       1    0    5    0
         3     9       0    5    4    0
  8      1     4       0    8    0    6
         2     5       0    7    2    0
         3     8       4    0    0    3
  9      1     3       0    1    8    0
         2     4       6    0    4    0
         3     9       5    0    0   10
 10      1     4       7    0    8    0
         2     6       5    0    3    0
         3     8       0    8    0    5
 11      1     3       0    2    0    6
         2     3       0    3    3    0
         3     5       6    0    3    0
 12      1     3       5    0    6    0
         2     7       0    2    6    0
         3     9       0    1    5    0
 13      1     1       8    0    0    6
         2     2       5    0    0    4
         3     8       0    6    0    3
 14      1     1      10    0    0    9
         2     3       8    0    5    0
         3     8       0    2    0    6
 15      1     2       3    0    8    0
         2     7       0    5    0   10
         3     9       2    0    0    7
 16      1     1       0    5    0    6
         2     4       6    0    0    4
         3     4       0    4    0    5
 17      1     3       0    5    8    0
         2     5       8    0    0    3
         3     8       5    0    6    0
 18      1     6       3    0    2    0
         2     9       3    0    0    8
         3     9       0    6    0    6
 19      1     3       7    0    0    6
         2     6       0    7    3    0
         3     6       0    5    4    0
 20      1     0       0    0    0    0
************************************************************************
RESOURCEAVAILABILITIES:
  R 1  R 2  N 1  N 2
   23   21   62   76
************************************************************************
